20
63.0
0 19 3.4 4.35
1 18 4.88 4.85
2 17 4.71 5.63
3 16 3.71 5.59
4 15 3.83 5.26
5 14 3.59 5.56
6 13 5.58 5.63
7 12 4.16 7.62
8 11 3.18 5.38
9 10 2.3 1.93
10 9 3.61 5.04
11 8 2.86 6.5
12 7 4.14 4.89
13 6 3.81 4.07
14 5 4.69 5.29
15 4 6.5 5.22
16 3 9.83 16.15
17 2 6.33 5.33
18 1 2.0 10.8
